examples/inputs/input21.dzn
n = 59;
l = 450;
s = 450;
r = 450;
f = 100;
forbidden = [| 39, 21
	| 14, 18
	| 21, 38
	| 5, 22
	| 52, 24
	| 58, 52
	| 19, 30
	| 55, 36
	| 50, 55
	| 50, 20
	| 4, 18
	| 34, 10
	| 26, 22
	| 22, 17
	| 37, 26
	| 47, 48
	| 47, 8
	| 23, 52
	| 8, 48
	| 26, 46
	| 42, 47
	| 33, 34
	| 19, 4
	| 29, 28
	| 28, 20
	| 47, 1
	| 18, 29
	| 15, 10
	| 29, 55
	| 23, 49
	| 42, 52
	| 8, 14
	| 24, 47
	| 29, 58
	| 14, 29
	| 36, 55
	| 26, 10
	| 13, 48
	| 34, 59
	| 51, 31
	| 57, 48
	| 46, 38
	| 19, 3
	| 27, 16
	| 30, 17
	| 44, 17
	| 14, 28
	| 39, 50
	| 6, 28
	| 11, 56
	| 28, 47
	| 47, 47
	| 59, 15
	| 13, 51
	| 51, 37
	| 25, 9
	| 50, 12
	| 38, 10
	| 26, 49
	| 38, 41
	| 48, 54
	| 56, 55
	| 57, 16
	| 54, 50
	| 2, 18
	| 33, 45
	| 25, 55
	| 34, 31
	| 24, 51
	| 19, 26
	| 54, 20
	| 33, 59
	| 15, 48
	| 36, 8
	| 59, 7
	| 8, 52
	| 24, 15
	| 3, 19
	| 10, 12
	| 28, 49
	| 8, 23
	| 27, 13
	| 51, 39
	| 34, 37
	| 11, 42
	| 21, 7
	| 32, 18
	| 42, 44
	| 23, 4
	| 15, 1
	| 7, 8
	| 35, 39
	| 13, 57
	| 31, 25
	| 47, 59
	| 31, 38
	| 3, 38
	| 22, 36
	| 2, 37
	| 21, 13
	|];