examples/inputs/input21.lp
#const n = 59.
#const l = 450.
#const s = 450.
#const r = 450.
#const f = 100.
val(39, 21, xxx).
val(14, 18, xxx).
val(21, 38, xxx).
val(5, 22, xxx).
val(52, 24, xxx).
val(58, 52, xxx).
val(19, 30, xxx).
val(55, 36, xxx).
val(50, 55, xxx).
val(50, 20, xxx).
val(4, 18, xxx).
val(34, 10, xxx).
val(26, 22, xxx).
val(22, 17, xxx).
val(37, 26, xxx).
val(47, 48, xxx).
val(47, 8, xxx).
val(23, 52, xxx).
val(8, 48, xxx).
val(26, 46, xxx).
val(42, 47, xxx).
val(33, 34, xxx).
val(19, 4, xxx).
val(29, 28, xxx).
val(28, 20, xxx).
val(47, 1, xxx).
val(18, 29, xxx).
val(15, 10, xxx).
val(29, 55, xxx).
val(23, 49, xxx).
val(42, 52, xxx).
val(8, 14, xxx).
val(24, 47, xxx).
val(29, 58, xxx).
val(14, 29, xxx).
val(36, 55, xxx).
val(26, 10, xxx).
val(13, 48, xxx).
val(34, 59, xxx).
val(51, 31, xxx).
val(57, 48, xxx).
val(46, 38, xxx).
val(19, 3, xxx).
val(27, 16, xxx).
val(30, 17, xxx).
val(44, 17, xxx).
val(14, 28, xxx).
val(39, 50, xxx).
val(6, 28, xxx).
val(11, 56, xxx).
val(28, 47, xxx).
val(47, 47, xxx).
val(59, 15, xxx).
val(13, 51, xxx).
val(51, 37, xxx).
val(25, 9, xxx).
val(50, 12, xxx).
val(38, 10, xxx).
val(26, 49, xxx).
val(38, 41, xxx).
val(48, 54, xxx).
val(56, 55, xxx).
val(57, 16, xxx).
val(54, 50, xxx).
val(2, 18, xxx).
val(33, 45, xxx).
val(25, 55, xxx).
val(34, 31, xxx).
val(24, 51, xxx).
val(19, 26, xxx).
val(54, 20, xxx).
val(33, 59, xxx).
val(15, 48, xxx).
val(36, 8, xxx).
val(59, 7, xxx).
val(8, 52, xxx).
val(24, 15, xxx).
val(3, 19, xxx).
val(10, 12, xxx).
val(28, 49, xxx).
val(8, 23, xxx).
val(27, 13, xxx).
val(51, 39, xxx).
val(34, 37, xxx).
val(11, 42, xxx).
val(21, 7, xxx).
val(32, 18, xxx).
val(42, 44, xxx).
val(23, 4, xxx).
val(15, 1, xxx).
val(7, 8, xxx).
val(35, 39, xxx).
val(13, 57, xxx).
val(31, 25, xxx).
val(47, 59, xxx).
val(31, 38, xxx).
val(3, 38, xxx).
val(22, 36, xxx).
val(2, 37, xxx).
val(21, 13, xxx).